52
15 43 132
43 33 80
33 34 21
34 48 85
48 35 81
35 38 43
38 39 43
39 36 41
36 37 43
37 47 49
47 23 16
23 4 32
4 14 25
14 5 40
5 3 70
3 24 109
24 45 173
45 25 454
25 46 186
46 12 324
12 13 206
13 51 319
51 10 399
10 26 417
26 27 110
27 11 182
11 50 188
50 32 475
32 42 365
42 9 308
9 8 83
8 7 183
7 40 64
40 18 92
18 44 75
44 31 151
31 21 97
21 30 104
30 17 80
17 2 135
2 16 217
16 20 253
20 41 290
41 6 76
6 1 45
1 52 150
52 29 436
29 22 179
22 19 94
19 49 35
49 28 191
28 15 201

